BAYES
576
2 2 2 2 2 2 2 2 2 2 2 2 2 2 2 2 2 2 2 2 2 2 2 2 2 2 2 2 2 2 2 2 2 2 2 2 2 2 2 2 2 2 2 2 2 2 2 2 2 2 2 2 2 2 2 2 2 2 2 2 2 2 2 2 2 2 2 2 2 2 2 2 2 2 2 2 2 2 2 2 2 2 2 2 2 2 2 2 2 2 2 2 2 2 2 2 2 2 2 2 2 2 2 2 2 2 2 2 2 2 2 2 2 2 2 2 2 2 2 2 2 2 2 2 2 2 2 2 2 2 2 2 2 2 2 2 2 2 2 2 2 2 2 2 2 2 2 2 2 2 2 2 2 2 2 2 2 2 2 2 2 2 2 2 2 2 2 2 2 2 2 2 2 2 2 2 2 2 2 2 2 2 2 2 2 2 2 2 2 2 2 2 2 2 2 2 2 2 2 2 2 2 2 2 2 2 2 2 2 2 2 2 2 2 2 2 2 2 2 2 2 2 2 2 2 2 2 2 2 2 2 2 2 2 2 2 2 2 2 2 2 2 2 2 2 2 2 2 2 2 2 2 2 2 2 2 2 2 2 2 2 2 2 2 2 2 2 2 2 2 2 2 2 2 2 2 2 2 2 2 2 2 2 2 2 2 2 2 2 2 2 2 2 2 2 2 2 2 2 2 2 2 2 2 2 2 2 2 2 2 2 2 2 2 2 2 2 2 2 2 2 2 2 2 2 2 2 2 2 2 2 2 2 2 2 2 2 2 2 2 2 2 2 2 2 2 2 2 2 2 2 2 2 2 2 2 2 2 2 2 2 2 2 2 2 2 2 2 2 2 2 2 2 2 2 2 2 2 2 2 2 2 2 2 2 2 2 2 2 2 2 2 2 2 2 2 2 2 2 2 2 2 2 2 2 2 2 2 2 2 2 2 2 2 2 2 2 2 2 2 2 2 2 2 2 2 2 2 2 2 2 2 2 2 2 2 2 2 2 2 2 2 2 2 2 2 2 2 2 2 2 2 2 2 2 2 2 2 2 2 2 2 2 2 2 2 2 2 2 2 2 2 2 2 2 2 2 2 2 2 2 2 2 2 2 2 2 2 2 2 2 2 2 2 2 2 2 2 2 2 2 2 2 2 2 2 2 2 2 2 2 2 2 2 2 2 2 2 2 2 2 2 2 2 2 2 2 2 2 2 2 2 2 2 2 2 2 2 2 2 2 2 2 2 2 2 2 2 2 2 2 2 2 2 2 2 2 2 2 2 2 2 2 2 2 2 2 2 2 2 2 2 2 2 2 2
576
1 0
2 0 1
2 1 2
2 2 3
2 3 4
2 4 5
2 5 6
2 6 7
2 7 8
2 8 9
2 9 10
2 10 11
2 11 12
2 12 13
2 13 14
2 14 15
2 15 16
2 16 17
2 17 18
2 18 19
2 19 20
2 20 21
2 21 22
2 22 23
2 0 24
3 1 24 25
3 2 25 26
3 3 26 27
3 4 27 28
3 5 28 29
3 6 29 30
3 7 30 31
3 8 31 32
3 9 32 33
3 10 33 34
3 11 34 35
3 12 35 36
3 13 36 37
3 14 37 38
3 15 38 39
3 16 39 40
3 17 40 41
3 18 41 42
3 19 42 43
3 20 43 44
3 21 44 45
3 22 45 46
3 23 46 47
2 24 48
3 25 48 49
3 26 49 50
3 27 50 51
3 28 51 52
3 29 52 53
3 30 53 54
3 31 54 55
3 32 55 56
3 33 56 57
3 34 57 58
3 35 58 59
3 36 59 60
3 37 60 61
3 38 61 62
3 39 62 63
3 40 63 64
3 41 64 65
3 42 65 66
3 43 66 67
3 44 67 68
3 45 68 69
3 46 69 70
3 47 70 71
2 48 72
3 49 72 73
3 50 73 74
3 51 74 75
3 52 75 76
3 53 76 77
3 54 77 78
3 55 78 79
3 56 79 80
3 57 80 81
3 58 81 82
3 59 82 83
3 60 83 84
3 61 84 85
3 62 85 86
3 63 86 87
3 64 87 88
3 65 88 89
3 66 89 90
3 67 90 91
3 68 91 92
3 69 92 93
3 70 93 94
3 71 94 95
2 72 96
3 73 96 97
3 74 97 98
3 75 98 99
3 76 99 100
3 77 100 101
3 78 101 102
3 79 102 103
3 80 103 104
3 81 104 105
3 82 105 106
3 83 106 107
3 84 107 108
3 85 108 109
3 86 109 110
3 87 110 111
3 88 111 112
3 89 112 113
3 90 113 114
3 91 114 115
3 92 115 116
3 93 116 117
3 94 117 118
3 95 118 119
2 96 120
3 97 120 121
3 98 121 122
3 99 122 123
3 100 123 124
3 101 124 125
3 102 125 126
3 103 126 127
3 104 127 128
3 105 128 129
3 106 129 130
3 107 130 131
3 108 131 132
3 109 132 133
3 110 133 134
3 111 134 135
3 112 135 136
3 113 136 137
3 114 137 138
3 115 138 139
3 116 139 140
3 117 140 141
3 118 141 142
3 119 142 143
2 120 144
3 121 144 145
3 122 145 146
3 123 146 147
3 124 147 148
3 125 148 149
3 126 149 150
3 127 150 151
3 128 151 152
3 129 152 153
3 130 153 154
3 131 154 155
3 132 155 156
3 133 156 157
3 134 157 158
3 135 158 159
3 136 159 160
3 137 160 161
3 138 161 162
3 139 162 163
3 140 163 164
3 141 164 165
3 142 165 166
3 143 166 167
2 144 168
3 145 168 169
3 146 169 170
3 147 170 171
3 148 171 172
3 149 172 173
3 150 173 174
3 151 174 175
3 152 175 176
3 153 176 177
3 154 177 178
3 155 178 179
3 156 179 180
3 157 180 181
3 158 181 182
3 159 182 183
3 160 183 184
3 161 184 185
3 162 185 186
3 163 186 187
3 164 187 188
3 165 188 189
3 166 189 190
3 167 190 191
2 168 192
3 169 192 193
3 170 193 194
3 171 194 195
3 172 195 196
3 173 196 197
3 174 197 198
3 175 198 199
3 176 199 200
3 177 200 201
3 178 201 202
3 179 202 203
3 180 203 204
3 181 204 205
3 182 205 206
3 183 206 207
3 184 207 208
3 185 208 209
3 186 209 210
3 187 210 211
3 188 211 212
3 189 212 213
3 190 213 214
3 191 214 215
2 192 216
3 193 216 217
3 194 217 218
3 195 218 219
3 196 219 220
3 197 220 221
3 198 221 222
3 199 222 223
3 200 223 224
3 201 224 225
3 202 225 226
3 203 226 227
3 204 227 228
3 205 228 229
3 206 229 230
3 207 230 231
3 208 231 232
3 209 232 233
3 210 233 234
3 211 234 235
3 212 235 236
3 213 236 237
3 214 237 238
3 215 238 239
2 216 240
3 217 240 241
3 218 241 242
3 219 242 243
3 220 243 244
3 221 244 245
3 222 245 246
3 223 246 247
3 224 247 248
3 225 248 249
3 226 249 250
3 227 250 251
3 228 251 252
3 229 252 253
3 230 253 254
3 231 254 255
3 232 255 256
3 233 256 257
3 234 257 258
3 235 258 259
3 236 259 260
3 237 260 261
3 238 261 262
3 239 262 263
2 240 264
3 241 264 265
3 242 265 266
3 243 266 267
3 244 267 268
3 245 268 269
3 246 269 270
3 247 270 271
3 248 271 272
3 249 272 273
3 250 273 274
3 251 274 275
3 252 275 276
3 253 276 277
3 254 277 278
3 255 278 279
3 256 279 280
3 257 280 281
3 258 281 282
3 259 282 283
3 260 283 284
3 261 284 285
3 262 285 286
3 263 286 287
2 264 288
3 265 288 289
3 266 289 290
3 267 290 291
3 268 291 292
3 269 292 293
3 270 293 294
3 271 294 295
3 272 295 296
3 273 296 297
3 274 297 298
3 275 298 299
3 276 299 300
3 277 300 301
3 278 301 302
3 279 302 303
3 280 303 304
3 281 304 305
3 282 305 306
3 283 306 307
3 284 307 308
3 285 308 309
3 286 309 310
3 287 310 311
2 288 312
3 289 312 313
3 290 313 314
3 291 314 315
3 292 315 316
3 293 316 317
3 294 317 318
3 295 318 319
3 296 319 320
3 297 320 321
3 298 321 322
3 299 322 323
3 300 323 324
3 301 324 325
3 302 325 326
3 303 326 327
3 304 327 328
3 305 328 329
3 306 329 330
3 307 330 331
3 308 331 332
3 309 332 333
3 310 333 334
3 311 334 335
2 312 336
3 313 336 337
3 314 337 338
3 315 338 339
3 316 339 340
3 317 340 341
3 318 341 342
3 319 342 343
3 320 343 344
3 321 344 345
3 322 345 346
3 323 346 347
3 324 347 348
3 325 348 349
3 326 349 350
3 327 350 351
3 328 351 352
3 329 352 353
3 330 353 354
3 331 354 355
3 332 355 356
3 333 356 357
3 334 357 358
3 335 358 359
2 336 360
3 337 360 361
3 338 361 362
3 339 362 363
3 340 363 364
3 341 364 365
3 342 365 366
3 343 366 367
3 344 367 368
3 345 368 369
3 346 369 370
3 347 370 371
3 348 371 372
3 349 372 373
3 350 373 374
3 351 374 375
3 352 375 376
3 353 376 377
3 354 377 378
3 355 378 379
3 356 379 380
3 357 380 381
3 358 381 382
3 359 382 383
2 360 384
3 361 384 385
3 362 385 386
3 363 386 387
3 364 387 388
3 365 388 389
3 366 389 390
3 367 390 391
3 368 391 392
3 369 392 393
3 370 393 394
3 371 394 395
3 372 395 396
3 373 396 397
3 374 397 398
3 375 398 399
3 376 399 400
3 377 400 401
3 378 401 402
3 379 402 403
3 380 403 404
3 381 404 405
3 382 405 406
3 383 406 407
2 384 408
3 385 408 409
3 386 409 410
3 387 410 411
3 388 411 412
3 389 412 413
3 390 413 414
3 391 414 415
3 392 415 416
3 393 416 417
3 394 417 418
3 395 418 419
3 396 419 420
3 397 420 421
3 398 421 422
3 399 422 423
3 400 423 424
3 401 424 425
3 402 425 426
3 403 426 427
3 404 427 428
3 405 428 429
3 406 429 430
3 407 430 431
2 408 432
3 409 432 433
3 410 433 434
3 411 434 435
3 412 435 436
3 413 436 437
3 414 437 438
3 415 438 439
3 416 439 440
3 417 440 441
3 418 441 442
3 419 442 443
3 420 443 444
3 421 444 445
3 422 445 446
3 423 446 447
3 424 447 448
3 425 448 449
3 426 449 450
3 427 450 451
3 428 451 452
3 429 452 453
3 430 453 454
3 431 454 455
2 432 456
3 433 456 457
3 434 457 458
3 435 458 459
3 436 459 460
3 437 460 461
3 438 461 462
3 439 462 463
3 440 463 464
3 441 464 465
3 442 465 466
3 443 466 467
3 444 467 468
3 445 468 469
3 446 469 470
3 447 470 471
3 448 471 472
3 449 472 473
3 450 473 474
3 451 474 475
3 452 475 476
3 453 476 477
3 454 477 478
3 455 478 479
2 456 480
3 457 480 481
3 458 481 482
3 459 482 483
3 460 483 484
3 461 484 485
3 462 485 486
3 463 486 487
3 464 487 488
3 465 488 489
3 466 489 490
3 467 490 491
3 468 491 492
3 469 492 493
3 470 493 494
3 471 494 495
3 472 495 496
3 473 496 497
3 474 497 498
3 475 498 499
3 476 499 500
3 477 500 501
3 478 501 502
3 479 502 503
2 480 504
3 481 504 505
3 482 505 506
3 483 506 507
3 484 507 508
3 485 508 509
3 486 509 510
3 487 510 511
3 488 511 512
3 489 512 513
3 490 513 514
3 491 514 515
3 492 515 516
3 493 516 517
3 494 517 518
3 495 518 519
3 496 519 520
3 497 520 521
3 498 521 522
3 499 522 523
3 500 523 524
3 501 524 525
3 502 525 526
3 503 526 527
2 504 528
3 505 528 529
3 506 529 530
3 507 530 531
3 508 531 532
3 509 532 533
3 510 533 534
3 511 534 535
3 512 535 536
3 513 536 537
3 514 537 538
3 515 538 539
3 516 539 540
3 517 540 541
3 518 541 542
3 519 542 543
3 520 543 544
3 521 544 545
3 522 545 546
3 523 546 547
3 524 547 548
3 525 548 549
3 526 549 550
3 527 550 551
2 528 552
3 529 552 553
3 530 553 554
3 531 554 555
3 532 555 556
3 533 556 557
3 534 557 558
3 535 558 559
3 536 559 560
3 537 560 561
3 538 561 562
3 539 562 563
3 540 563 564
3 541 564 565
3 542 565 566
3 543 566 567
3 544 567 568
3 545 568 569
3 546 569 570
3 547 570 571
3 548 571 572
3 549 572 573
3 550 573 574
3 551 574 575

2
0.302647 0.697353
4
0.911479 0.0885213 0.846088 0.153912
4
0.0 1.0 1.0 0.0
4
1.0 0.0 0.0 1.0
4
1.0 0.0 0.0 1.0
4
0.298549 0.701451 0.557975 0.442025
4
0.0 1.0 1.0 0.0
4
0.0 1.0 1.0 0.0
4
0.0 1.0 1.0 0.0
4
0.241765 0.758235 0.902599 0.0974005
4
0.0 1.0 1.0 0.0
4
0.699755 0.300245 0.226665 0.773335
4
0.0 1.0 1.0 0.0
4
0.0 1.0 1.0 0.0
4
0.0 1.0 1.0 0.0
4
1.0 0.0 0.0 1.0
4
0.0 1.0 1.0 0.0
4
0.0 1.0 1.0 0.0
4
0.0 1.0 1.0 0.0
4
0.0 1.0 1.0 0.0
4
1.0 0.0 0.0 1.0
4
0.0 1.0 1.0 0.0
4
0.0 1.0 1.0 0.0
4
0.0 1.0 1.0 0.0
4
1.0 0.0 0.0 1.0
8
1.0 0.0 0.0 1.0 0.0 1.0 0.0 1.0
8
0.0 1.0 0.0 1.0 0.0 1.0 1.0 0.0
8
0.0 1.0 1.0 0.0 1.0 0.0 1.0 0.0
8
1.0 0.0 0.0 1.0 1.0 0.0 0.0 1.0
8
0.0 1.0 1.0 0.0 0.0 1.0 0.0 1.0
8
0.0 1.0 1.0 0.0 0.0 1.0 1.0 0.0
8
0.0 1.0 0.0 1.0 1.0 0.0 0.0 1.0
8
1.0 0.0 1.0 0.0 0.0 1.0 1.0 0.0
8
0.177623 0.822377 0.943932 0.0560684 0.875304 0.124696 0.119327 0.880673
8
1.0 0.0 0.0 1.0 1.0 0.0 0.0 1.0
8
1.0 0.0 0.0 1.0 1.0 0.0 1.0 0.0
8
0.556494 0.443506 0.676699 0.323301 0.366527 0.633473 0.601568 0.398432
8
1.0 0.0 0.0 1.0 0.0 1.0 1.0 0.0
8
0.90883 0.0911697 0.325818 0.674182 0.882871 0.117129 0.342099 0.657901
8
0.0 1.0 0.0 1.0 0.0 1.0 1.0 0.0
8
1.0 0.0 0.0 1.0 0.0 1.0 0.0 1.0
8
0.0 1.0 1.0 0.0 1.0 0.0 0.0 1.0
8
0.0 1.0 1.0 0.0 1.0 0.0 1.0 0.0
8
0.352713 0.647287 0.753467 0.246533 0.728661 0.271339 0.631572 0.368428
8
0.0 1.0 1.0 0.0 0.0 1.0 1.0 0.0
8
0.248384 0.751616 0.342956 0.657044 0.402223 0.597777 0.872432 0.127568
8
0.0412719 0.958728 0.922811 0.0771892 0.203179 0.796821 0.655946 0.344054
8
0.0 1.0 1.0 0.0 0.0 1.0 0.0 1.0
4
0.0 1.0 1.0 0.0
8
0.0 1.0 1.0 0.0 1.0 0.0 0.0 1.0
8
0.79941 0.20059 0.48494 0.51506 0.511665 0.488335 0.0418602 0.95814
8
1.0 0.0 1.0 0.0 1.0 0.0 0.0 1.0
8
0.11304 0.88696 0.336791 0.663209 0.730944 0.269056 0.0902493 0.909751
8
0.0 1.0 1.0 0.0 0.0 1.0 1.0 0.0
8
1.0 0.0 1.0 0.0 1.0 0.0 0.0 1.0
8
0.0 1.0 1.0 0.0 1.0 0.0 1.0 0.0
8
0.0 1.0 1.0 0.0 0.0 1.0 0.0 1.0
8
0.761244 0.238756 0.315714 0.684286 0.366715 0.633285 0.531327 0.468673
8
0.0 1.0 1.0 0.0 0.0 1.0 1.0 0.0
8
0.0 1.0 1.0 0.0 0.0 1.0 0.0 1.0
8
0.0 1.0 1.0 0.0 1.0 0.0 0.0 1.0
8
1.0 0.0 1.0 0.0 1.0 0.0 0.0 1.0
8
0.311191 0.688809 0.740043 0.259957 0.349373 0.650627 0.574838 0.425162
8
1.0 0.0 0.0 1.0 1.0 0.0 0.0 1.0
8
1.0 0.0 1.0 0.0 0.0 1.0 1.0 0.0
8
1.0 0.0 0.0 1.0 1.0 0.0 0.0 1.0
8
1.0 0.0 1.0 0.0 1.0 0.0 0.0 1.0
8
0.0 1.0 1.0 0.0 1.0 0.0 0.0 1.0
8
1.0 0.0 0.0 1.0 1.0 0.0 0.0 1.0
8
0.0 1.0 0.0 1.0 1.0 0.0 0.0 1.0
8
0.0 1.0 1.0 0.0 0.0 1.0 1.0 0.0
8
0.0323653 0.967635 0.985564 0.0144362 0.842561 0.157439 0.724548 0.275452
4
0.0 1.0 1.0 0.0
8
0.0 1.0 1.0 0.0 0.0 1.0 0.0 1.0
8
0.0 1.0 1.0 0.0 0.0 1.0 0.0 1.0
8
1.0 0.0 1.0 0.0 0.0 1.0 1.0 0.0
8
1.0 0.0 1.0 0.0 0.0 1.0 1.0 0.0
8
1.0 0.0 0.0 1.0 1.0 0.0 1.0 0.0
8
0.0 1.0 0.0 1.0 1.0 0.0 1.0 0.0
8
1.0 0.0 1.0 0.0 1.0 0.0 0.0 1.0
8
1.0 0.0 0.0 1.0 1.0 0.0 1.0 0.0
8
0.0 1.0 0.0 1.0 1.0 0.0 1.0 0.0
8
0.0 1.0 0.0 1.0 0.0 1.0 1.0 0.0
8
0.487879 0.512121 0.582706 0.417294 0.668858 0.331142 0.89332 0.10668
8
0.0 1.0 1.0 0.0 0.0 1.0 0.0 1.0
8
1.0 0.0 0.0 1.0 1.0 0.0 1.0 0.0
8
0.0 1.0 0.0 1.0 1.0 0.0 1.0 0.0
8
0.0 1.0 0.0 1.0 0.0 1.0 1.0 0.0
8
0.0 1.0 0.0 1.0 0.0 1.0 1.0 0.0
8
1.0 0.0 0.0 1.0 0.0 1.0 0.0 1.0
8
0.0 1.0 0.0 1.0 1.0 0.0 1.0 0.0
8
0.0 1.0 1.0 0.0 1.0 0.0 1.0 0.0
8
0.0 1.0 1.0 0.0 1.0 0.0 1.0 0.0
8
1.0 0.0 0.0 1.0 0.0 1.0 1.0 0.0
8
0.0 1.0 0.0 1.0 0.0 1.0 1.0 0.0
8
0.0 1.0 1.0 0.0 0.0 1.0 0.0 1.0
4
0.677556 0.322444 0.276919 0.723081
8
0.244607 0.755393 0.381603 0.618397 0.930957 0.0690435 0.0862069 0.913793
8
0.0 1.0 1.0 0.0 1.0 0.0 1.0 0.0
8
1.0 0.0 0.0 1.0 1.0 0.0 0.0 1.0
8
0.0 1.0 0.0 1.0 1.0 0.0 0.0 1.0
8
1.0 0.0 1.0 0.0 0.0 1.0 1.0 0.0
8
0.0 1.0 0.0 1.0 0.0 1.0 1.0 0.0
8
1.0 0.0 1.0 0.0 0.0 1.0 0.0 1.0
8
1.0 0.0 1.0 0.0 0.0 1.0 0.0 1.0
8
0.0 1.0 0.0 1.0 1.0 0.0 1.0 0.0
8
0.711879 0.288121 0.77712 0.22288 0.102886 0.897114 0.818505 0.181495
8
1.0 0.0 0.0 1.0 1.0 0.0 1.0 0.0
8
0.0 1.0 0.0 1.0 1.0 0.0 0.0 1.0
8
0.396056 0.603944 0.266975 0.733025 0.834768 0.165232 0.0468951 0.953105
8
1.0 0.0 1.0 0.0 1.0 0.0 0.0 1.0
8
1.0 0.0 1.0 0.0 1.0 0.0 0.0 1.0
8
1.0 0.0 0.0 1.0 0.0 1.0 0.0 1.0
8
1.0 0.0 1.0 0.0 1.0 0.0 0.0 1.0
8
1.0 0.0 0.0 1.0 0.0 1.0 0.0 1.0
8
0.99561 0.00439009 0.709088 0.290912 0.777243 0.222757 0.042505 0.957495
8
1.0 0.0 0.0 1.0 0.0 1.0 1.0 0.0
8
0.991719 0.00828141 0.405685 0.594315 0.21751 0.78249 0.0767127 0.923287
8
0.0 1.0 0.0 1.0 1.0 0.0 0.0 1.0
8
1.0 0.0 1.0 0.0 1.0 0.0 0.0 1.0
4
0.0 1.0 1.0 0.0
8
0.0 1.0 0.0 1.0 1.0 0.0 0.0 1.0
8
0.479704 0.520296 0.811727 0.188273 0.937596 0.0624038 0.571335 0.428665
8
1.0 0.0 0.0 1.0 0.0 1.0 0.0 1.0
8
0.149353 0.850647 0.908742 0.0912575 0.602291 0.397709 0.431092 0.568908
8
0.276749 0.723251 0.879946 0.120054 0.271292 0.728708 0.572803 0.427197
8
1.0 0.0 0.0 1.0 1.0 0.0 1.0 0.0
8
0.172064 0.827936 0.297895 0.702105 0.640679 0.359321 0.206548 0.793452
8
0.0 1.0 0.0 1.0 1.0 0.0 0.0 1.0
8
1.0 0.0 0.0 1.0 0.0 1.0 1.0 0.0
8
1.0 0.0 0.0 1.0 1.0 0.0 1.0 0.0
8
0.0 1.0 0.0 1.0 1.0 0.0 0.0 1.0
8
1.0 0.0 0.0 1.0 1.0 0.0 0.0 1.0
8
0.7755 0.2245 0.121216 0.878784 0.476272 0.523728 0.982048 0.0179523
8
1.0 0.0 1.0 0.0 0.0 1.0 1.0 0.0
8
0.0 1.0 0.0 1.0 0.0 1.0 1.0 0.0
8
1.0 0.0 0.0 1.0 0.0 1.0 0.0 1.0
8
0.0 1.0 0.0 1.0 1.0 0.0 0.0 1.0
8
1.0 0.0 0.0 1.0 0.0 1.0 1.0 0.0
8
1.0 0.0 0.0 1.0 0.0 1.0 0.0 1.0
8
1.0 0.0 1.0 0.0 0.0 1.0 1.0 0.0
8
0.0 1.0 1.0 0.0 0.0 1.0 0.0 1.0
8
0.0 1.0 0.0 1.0 1.0 0.0 0.0 1.0
8
0.0 1.0 1.0 0.0 0.0 1.0 0.0 1.0
4
1.0 0.0 0.0 1.0
8
0.0 1.0 0.0 1.0 1.0 0.0 0.0 1.0
8
0.854371 0.145629 0.390985 0.609015 0.522835 0.477165 0.376828 0.623172
8
1.0 0.0 0.0 1.0 1.0 0.0 1.0 0.0
8
0.369113 0.630887 0.0254226 0.974577 0.894191 0.105809 0.856007 0.143993
8
1.0 0.0 1.0 0.0 0.0 1.0 1.0 0.0
8
0.0 1.0 1.0 0.0 1.0 0.0 1.0 0.0
8
1.0 0.0 0.0 1.0 1.0 0.0 1.0 0.0
8
0.611629 0.388371 0.641478 0.358522 0.356279 0.643721 0.988457 0.0115431
8
1.0 0.0 1.0 0.0 0.0 1.0 1.0 0.0
8
0.0 1.0 1.0 0.0 1.0 0.0 0.0 1.0
8
0.0 1.0 1.0 0.0 1.0 0.0 1.0 0.0
8
1.0 0.0 0.0 1.0 1.0 0.0 0.0 1.0
8
0.238002 0.761998 0.070878 0.929122 0.984825 0.0151746 0.99526 0.00474044
8
1.0 0.0 1.0 0.0 0.0 1.0 1.0 0.0
8
1.0 0.0 1.0 0.0 1.0 0.0 0.0 1.0
8
0.0 1.0 1.0 0.0 1.0 0.0 0.0 1.0
8
0.0 1.0 1.0 0.0 1.0 0.0 1.0 0.0
8
0.0 1.0 0.0 1.0 0.0 1.0 1.0 0.0
8
0.684555 0.315445 0.509024 0.490976 0.914611 0.0853885 0.00592516 0.994075
8
0.0 1.0 1.0 0.0 1.0 0.0 0.0 1.0
8
0.0 1.0 0.0 1.0 1.0 0.0 0.0 1.0
8
1.0 0.0 0.0 1.0 1.0 0.0 1.0 0.0
8
0.0 1.0 1.0 0.0 1.0 0.0 1.0 0.0
4
1.0 0.0 0.0 1.0
8
0.0 1.0 0.0 1.0 1.0 0.0 1.0 0.0
8
1.0 0.0 1.0 0.0 0.0 1.0 1.0 0.0
8
1.0 0.0 0.0 1.0 0.0 1.0 0.0 1.0
8
1.0 0.0 0.0 1.0 1.0 0.0 0.0 1.0
8
0.0 1.0 0.0 1.0 1.0 0.0 1.0 0.0
8
0.0 1.0 0.0 1.0 0.0 1.0 1.0 0.0
8
0.868248 0.131752 0.363395 0.636605 0.371519 0.628481 0.596167 0.403833
8
1.0 0.0 1.0 0.0 0.0 1.0 0.0 1.0
8
0.0 1.0 0.0 1.0 1.0 0.0 0.0 1.0
8
0.0 1.0 1.0 0.0 0.0 1.0 1.0 0.0
8
0.0 1.0 0.0 1.0 0.0 1.0 1.0 0.0
8
0.0 1.0 1.0 0.0 1.0 0.0 1.0 0.0
8
0.0 1.0 1.0 0.0 0.0 1.0 0.0 1.0
8
1.0 0.0 1.0 0.0 0.0 1.0 1.0 0.0
8
0.0 1.0 0.0 1.0 1.0 0.0 1.0 0.0
8
0.55116 0.44884 0.282541 0.717459 0.322346 0.677654 0.227132 0.772868
8
1.0 0.0 1.0 0.0 0.0 1.0 0.0 1.0
8
1.0 0.0 0.0 1.0 1.0 0.0 1.0 0.0
8
1.0 0.0 0.0 1.0 1.0 0.0 1.0 0.0
8
0.0 1.0 0.0 1.0 1.0 0.0 0.0 1.0
8
1.0 0.0 0.0 1.0 1.0 0.0 0.0 1.0
8
0.222128 0.777872 0.686671 0.313329 0.261287 0.738713 0.449261 0.550739
8
0.0 1.0 0.0 1.0 1.0 0.0 0.0 1.0
4
1.0 0.0 0.0 1.0
8
0.0 1.0 0.0 1.0 1.0 0.0 1.0 0.0
8
1.0 0.0 0.0 1.0 1.0 0.0 1.0 0.0
8
0.0 1.0 1.0 0.0 0.0 1.0 1.0 0.0
8
1.0 0.0 0.0 1.0 0.0 1.0 0.0 1.0
8
0.481757 0.518243 0.37884 0.62116 0.00164712 0.998353 0.231608 0.768392
8
1.0 0.0 0.0 1.0 0.0 1.0 0.0 1.0
8
0.471755 0.528245 0.594634 0.405366 0.366903 0.633097 0.733416 0.266584
8
1.0 0.0 0.0 1.0 0.0 1.0 0.0 1.0
8
0.0 1.0 0.0 1.0 1.0 0.0 1.0 0.0
8
0.0 1.0 1.0 0.0 1.0 0.0 1.0 0.0
8
0.585966 0.414034 0.491138 0.508862 0.0586546 0.941345 0.0450864 0.954914
8
1.0 0.0 1.0 0.0 1.0 0.0 0.0 1.0
8
0.0 1.0 1.0 0.0 0.0 1.0 1.0 0.0
8
0.0 1.0 1.0 0.0 1.0 0.0 1.0 0.0
8
1.0 0.0 1.0 0.0 0.0 1.0 0.0 1.0
8
0.0 1.0 0.0 1.0 1.0 0.0 0.0 1.0
8
0.180881 0.819119 0.431229 0.568771 0.973459 0.026541 0.225967 0.774033
8
0.54851 0.45149 0.997797 0.00220254 0.692141 0.307859 0.0168897 0.98311
8
0.0 1.0 1.0 0.0 0.0 1.0 0.0 1.0
8
0.0 1.0 1.0 0.0 1.0 0.0 1.0 0.0
8
0.0 1.0 0.0 1.0 1.0 0.0 0.0 1.0
8
0.996875 0.00312467 0.864486 0.135514 0.947872 0.0521282 0.59179 0.40821
8
0.862676 0.137324 0.772671 0.227329 0.235808 0.764192 0.836135 0.163865
4
0.136401 0.863599 0.384645 0.615355
8
0.828542 0.171458 0.401535 0.598465 0.635543 0.364457 0.783986 0.216014
8
1.0 0.0 1.0 0.0 1.0 0.0 0.0 1.0
8
0.0 1.0 1.0 0.0 0.0 1.0 0.0 1.0
8
0.0 1.0 1.0 0.0 1.0 0.0 1.0 0.0
8
0.0 1.0 0.0 1.0 1.0 0.0 0.0 1.0
8
0.0 1.0 0.0 1.0 0.0 1.0 1.0 0.0
8
0.0 1.0 0.0 1.0 0.0 1.0 1.0 0.0
8
0.0 1.0 0.0 1.0 1.0 0.0 0.0 1.0
8
1.0 0.0 1.0 0.0 0.0 1.0 0.0 1.0
8
0.0 1.0 1.0 0.0 0.0 1.0 0.0 1.0
8
0.0 1.0 0.0 1.0 1.0 0.0 0.0 1.0
8
0.0534817 0.946518 0.570868 0.429132 0.0784845 0.921515 0.574031 0.425969
8
1.0 0.0 1.0 0.0 0.0 1.0 1.0 0.0
8
1.0 0.0 1.0 0.0 0.0 1.0 0.0 1.0
8
0.0 1.0 0.0 1.0 1.0 0.0 0.0 1.0
8
0.0114063 0.988594 0.807786 0.192214 0.156723 0.843277 0.718399 0.281601
8
1.0 0.0 1.0 0.0 1.0 0.0 0.0 1.0
8
1.0 0.0 0.0 1.0 0.0 1.0 1.0 0.0
8
0.95677 0.0432302 0.151482 0.848518 0.897683 0.102317 0.964344 0.0356559
8
0.0 1.0 0.0 1.0 1.0 0.0 0.0 1.0
8
0.0 1.0 0.0 1.0 0.0 1.0 1.0 0.0
8
0.0 1.0 0.0 1.0 1.0 0.0 1.0 0.0
8
0.0 1.0 1.0 0.0 0.0 1.0 1.0 0.0
4
0.0 1.0 1.0 0.0
8
0.0 1.0 1.0 0.0 1.0 0.0 1.0 0.0
8
0.412028 0.587972 0.736749 0.263251 0.956824 0.0431756 0.595908 0.404092
8
0.0 1.0 0.0 1.0 1.0 0.0 0.0 1.0
8
1.0 0.0 1.0 0.0 0.0 1.0 1.0 0.0
8
0.952378 0.0476216 0.978643 0.0213569 0.375458 0.624542 0.962805 0.0371948
8
0.0 1.0 1.0 0.0 1.0 0.0 1.0 0.0
8
0.0 1.0 1.0 0.0 1.0 0.0 1.0 0.0
8
0.0 1.0 1.0 0.0 0.0 1.0 1.0 0.0
8
0.0 1.0 1.0 0.0 1.0 0.0 1.0 0.0
8
0.595998 0.404002 0.318977 0.681023 0.626931 0.373069 0.150798 0.849202
8
0.0 1.0 1.0 0.0 0.0 1.0 1.0 0.0
8
0.0 1.0 0.0 1.0 1.0 0.0 0.0 1.0
8
1.0 0.0 1.0 0.0 1.0 0.0 0.0 1.0
8
0.0 1.0 0.0 1.0 1.0 0.0 0.0 1.0
8
0.0 1.0 1.0 0.0 1.0 0.0 1.0 0.0
8
1.0 0.0 0.0 1.0 0.0 1.0 1.0 0.0
8
1.0 0.0 1.0 0.0 1.0 0.0 0.0 1.0
8
0.277614 0.722386 0.732002 0.267998 0.374388 0.625612 0.059372 0.940628
8
0.749401 0.250599 0.269724 0.730276 0.711726 0.288274 0.160272 0.839728
8
0.0 1.0 1.0 0.0 0.0 1.0 1.0 0.0
8
0.0 1.0 1.0 0.0 0.0 1.0 0.0 1.0
8
0.166742 0.833258 0.403357 0.596643 0.272049 0.727951 0.889774 0.110226
8
1.0 0.0 0.0 1.0 0.0 1.0 0.0 1.0
4
1.0 0.0 0.0 1.0
8
0.0 1.0 0.0 1.0 0.0 1.0 1.0 0.0
8
0.904752 0.0952482 0.732122 0.267878 0.0224427 0.977557 0.0739665 0.926033
8
1.0 0.0 1.0 0.0 0.0 1.0 1.0 0.0
8
0.0 1.0 1.0 0.0 1.0 0.0 1.0 0.0
8
1.0 0.0 0.0 1.0 0.0 1.0 0.0 1.0
8
0.0 1.0 0.0 1.0 1.0 0.0 0.0 1.0
8
0.0 1.0 1.0 0.0 1.0 0.0 1.0 0.0
8
0.0 1.0 1.0 0.0 1.0 0.0 1.0 0.0
8
0.0449948 0.955005 0.204264 0.795736 0.00847399 0.991526 0.69077 0.30923
8
0.0 1.0 1.0 0.0 0.0 1.0 1.0 0.0
8
1.0 0.0 1.0 0.0 0.0 1.0 1.0 0.0
8
0.0 1.0 1.0 0.0 1.0 0.0 1.0 0.0
8
0.0 1.0 0.0 1.0 0.0 1.0 1.0 0.0
8
1.0 0.0 0.0 1.0 1.0 0.0 1.0 0.0
8
1.0 0.0 0.0 1.0 1.0 0.0 1.0 0.0
8
0.0 1.0 0.0 1.0 1.0 0.0 0.0 1.0
8
1.0 0.0 1.0 0.0 0.0 1.0 1.0 0.0
8
1.0 0.0 1.0 0.0 1.0 0.0 0.0 1.0
8
0.704485 0.295515 0.374888 0.625112 0.743583 0.256417 0.0246457 0.975354
8
0.0 1.0 0.0 1.0 1.0 0.0 1.0 0.0
8
0.0 1.0 1.0 0.0 0.0 1.0 0.0 1.0
8
0.456635 0.543365 0.0219821 0.978018 0.28595 0.71405 0.722995 0.277005
8
0.0 1.0 1.0 0.0 0.0 1.0 1.0 0.0
4
0.95547 0.0445297 0.575273 0.424727
8
1.0 0.0 1.0 0.0 1.0 0.0 0.0 1.0
8
0.0 1.0 0.0 1.0 0.0 1.0 1.0 0.0
8
1.0 0.0 0.0 1.0 1.0 0.0 0.0 1.0
8
0.0 1.0 0.0 1.0 1.0 0.0 0.0 1.0
8
0.266788 0.733212 0.629455 0.370545 0.34323 0.65677 0.732101 0.267899
8
0.924445 0.0755555 0.516188 0.483812 0.808316 0.191684 0.879915 0.120085
8
1.0 0.0 1.0 0.0 1.0 0.0 0.0 1.0
8
0.0 1.0 1.0 0.0 1.0 0.0 0.0 1.0
8
1.0 0.0 0.0 1.0 0.0 1.0 1.0 0.0
8
0.0 1.0 1.0 0.0 0.0 1.0 0.0 1.0
8
0.0 1.0 0.0 1.0 0.0 1.0 1.0 0.0
8
1.0 0.0 1.0 0.0 0.0 1.0 1.0 0.0
8
0.0 1.0 0.0 1.0 0.0 1.0 1.0 0.0
8
1.0 0.0 0.0 1.0 1.0 0.0 0.0 1.0
8
1.0 0.0 0.0 1.0 0.0 1.0 0.0 1.0
8
0.150831 0.849169 0.131916 0.868084 0.505896 0.494104 0.396736 0.603264
8
1.0 0.0 0.0 1.0 1.0 0.0 0.0 1.0
8
0.0 1.0 1.0 0.0 1.0 0.0 0.0 1.0
8
1.0 0.0 1.0 0.0 0.0 1.0 1.0 0.0
8
0.0 1.0 1.0 0.0 0.0 1.0 0.0 1.0
8
1.0 0.0 1.0 0.0 1.0 0.0 0.0 1.0
8
1.0 0.0 0.0 1.0 0.0 1.0 0.0 1.0
8
1.0 0.0 1.0 0.0 0.0 1.0 1.0 0.0
4
1.0 0.0 0.0 1.0
8
0.704326 0.295674 0.130964 0.869036 0.763566 0.236434 0.793926 0.206074
8
1.0 0.0 1.0 0.0 1.0 0.0 0.0 1.0
8
1.0 0.0 1.0 0.0 1.0 0.0 0.0 1.0
8
0.970019 0.0299805 0.286757 0.713243 0.378878 0.621122 0.692678 0.307322
8
1.0 0.0 1.0 0.0 0.0 1.0 0.0 1.0
8
0.0 1.0 1.0 0.0 0.0 1.0 1.0 0.0
8
0.0 1.0 0.0 1.0 1.0 0.0 1.0 0.0
8
0.0 1.0 0.0 1.0 1.0 0.0 0.0 1.0
8
1.0 0.0 1.0 0.0 1.0 0.0 0.0 1.0
8
1.0 0.0 0.0 1.0 0.0 1.0 0.0 1.0
8
1.0 0.0 1.0 0.0 0.0 1.0 1.0 0.0
8
0.0 1.0 0.0 1.0 1.0 0.0 1.0 0.0
8
1.0 0.0 1.0 0.0 1.0 0.0 0.0 1.0
8
1.0 0.0 1.0 0.0 0.0 1.0 1.0 0.0
8
0.0 1.0 0.0 1.0 1.0 0.0 1.0 0.0
8
1.0 0.0 1.0 0.0 1.0 0.0 0.0 1.0
8
1.0 0.0 0.0 1.0 1.0 0.0 0.0 1.0
8
1.0 0.0 1.0 0.0 1.0 0.0 0.0 1.0
8
0.0 1.0 1.0 0.0 0.0 1.0 1.0 0.0
8
1.0 0.0 0.0 1.0 1.0 0.0 0.0 1.0
8
0.0 1.0 0.0 1.0 0.0 1.0 1.0 0.0
8
1.0 0.0 0.0 1.0 0.0 1.0 1.0 0.0
8
1.0 0.0 0.0 1.0 1.0 0.0 0.0 1.0
4
1.0 0.0 0.0 1.0
8
0.792133 0.207867 0.478566 0.521434 0.113358 0.886642 0.917154 0.0828463
8
0.0 1.0 0.0 1.0 1.0 0.0 1.0 0.0
8
1.0 0.0 1.0 0.0 1.0 0.0 0.0 1.0
8
0.539389 0.460611 0.483397 0.516603 0.925273 0.0747271 0.709687 0.290313
8
0.983955 0.0160453 0.963444 0.0365557 0.28078 0.71922 0.542235 0.457765
8
0.0 1.0 0.0 1.0 0.0 1.0 1.0 0.0
8
0.0 1.0 1.0 0.0 1.0 0.0 0.0 1.0
8
0.0 1.0 1.0 0.0 1.0 0.0 1.0 0.0
8
0.0 1.0 0.0 1.0 1.0 0.0 1.0 0.0
8
1.0 0.0 1.0 0.0 1.0 0.0 0.0 1.0
8
1.0 0.0 0.0 1.0 1.0 0.0 1.0 0.0
8
1.0 0.0 1.0 0.0 0.0 1.0 0.0 1.0
8
0.946523 0.0534769 0.00383354 0.996166 0.46759 0.53241 0.861053 0.138947
8
1.0 0.0 0.0 1.0 1.0 0.0 0.0 1.0
8
0.0 1.0 0.0 1.0 0.0 1.0 1.0 0.0
8
1.0 0.0 0.0 1.0 0.0 1.0 0.0 1.0
8
0.510201 0.489799 0.799771 0.200229 0.893812 0.106188 0.413737 0.586263
8
1.0 0.0 1.0 0.0 0.0 1.0 1.0 0.0
8
0.0 1.0 1.0 0.0 0.0 1.0 0.0 1.0
8
0.0 1.0 0.0 1.0 0.0 1.0 1.0 0.0
8
0.0 1.0 1.0 0.0 1.0 0.0 1.0 0.0
8
0.0 1.0 1.0 0.0 0.0 1.0 0.0 1.0
8
0.0982613 0.901739 0.283627 0.716373 0.286944 0.713056 0.641936 0.358064
4
0.106573 0.893427 0.134758 0.865242
8
1.0 0.0 0.0 1.0 1.0 0.0 1.0 0.0
8
0.247297 0.752703 0.231679 0.768321 0.351795 0.648205 0.211657 0.788343
8
0.0 1.0 1.0 0.0 0.0 1.0 1.0 0.0
8
0.695393 0.304607 0.131517 0.868483 0.0591071 0.940893 0.0894524 0.910548
8
1.0 0.0 1.0 0.0 1.0 0.0 0.0 1.0
8
0.654674 0.345326 0.097795 0.902205 0.680954 0.319046 0.761247 0.238753
8
1.0 0.0 0.0 1.0 0.0 1.0 0.0 1.0
8
1.0 0.0 1.0 0.0 0.0 1.0 0.0 1.0
8
0.0564953 0.943505 0.507814 0.492186 0.681245 0.318755 0.736308 0.263692
8
1.0 0.0 1.0 0.0 1.0 0.0 0.0 1.0
8
0.0 1.0 0.0 1.0 0.0 1.0 1.0 0.0
8
0.0 1.0 0.0 1.0 0.0 1.0 1.0 0.0
8
0.0 1.0 1.0 0.0 1.0 0.0 1.0 0.0
8
0.0 1.0 0.0 1.0 0.0 1.0 1.0 0.0
8
0.741714 0.258286 0.667259 0.332741 0.509022 0.490978 0.166939 0.833061
8
1.0 0.0 1.0 0.0 0.0 1.0 0.0 1.0
8
0.673746 0.326254 0.462296 0.537704 0.193945 0.806055 0.0565344 0.943466
8
1.0 0.0 1.0 0.0 0.0 1.0 0.0 1.0
8
1.0 0.0 1.0 0.0 1.0 0.0 0.0 1.0
8
0.0 1.0 0.0 1.0 1.0 0.0 0.0 1.0
8
0.94661 0.0533903 0.47153 0.52847 0.446399 0.553601 0.113549 0.886451
8
0.0 1.0 0.0 1.0 1.0 0.0 0.0 1.0
8
1.0 0.0 0.0 1.0 0.0 1.0 0.0 1.0
4
0.0 1.0 1.0 0.0
8
0.0 1.0 0.0 1.0 1.0 0.0 1.0 0.0
8
0.0 1.0 1.0 0.0 1.0 0.0 0.0 1.0
8
1.0 0.0 1.0 0.0 1.0 0.0 0.0 1.0
8
0.895615 0.104385 0.678106 0.321894 0.919581 0.080419 0.544629 0.455371
8
1.0 0.0 0.0 1.0 1.0 0.0 0.0 1.0
8
1.0 0.0 1.0 0.0 0.0 1.0 1.0 0.0
8
1.0 0.0 1.0 0.0 1.0 0.0 0.0 1.0
8
1.0 0.0 0.0 1.0 1.0 0.0 1.0 0.0
8
1.0 0.0 0.0 1.0 0.0 1.0 0.0 1.0
8
0.716367 0.283633 0.897603 0.102397 0.440171 0.559829 0.635948 0.364052
8
0.0 1.0 0.0 1.0 1.0 0.0 1.0 0.0
8
0.392727 0.607273 0.645143 0.354857 0.936872 0.0631275 0.528873 0.471127
8
0.0 1.0 0.0 1.0 1.0 0.0 0.0 1.0
8
1.0 0.0 1.0 0.0 0.0 1.0 0.0 1.0
8
1.0 0.0 1.0 0.0 0.0 1.0 1.0 0.0
8
0.0 1.0 1.0 0.0 0.0 1.0 1.0 0.0
8
0.0 1.0 1.0 0.0 0.0 1.0 0.0 1.0
8
0.186539 0.813461 0.256001 0.743999 0.842443 0.157557 0.715412 0.284588
8
1.0 0.0 1.0 0.0 0.0 1.0 1.0 0.0
8
1.0 0.0 1.0 0.0 0.0 1.0 1.0 0.0
8
1.0 0.0 0.0 1.0 1.0 0.0 0.0 1.0
8
1.0 0.0 0.0 1.0 1.0 0.0 0.0 1.0
8
1.0 0.0 1.0 0.0 0.0 1.0 1.0 0.0
4
0.0 1.0 1.0 0.0
8
0.167394 0.832606 0.281398 0.718602 0.446238 0.553762 0.195567 0.804433
8
1.0 0.0 0.0 1.0 0.0 1.0 1.0 0.0
8
1.0 0.0 1.0 0.0 1.0 0.0 0.0 1.0
8
1.0 0.0 1.0 0.0 1.0 0.0 0.0 1.0
8
0.639755 0.360245 0.0567369 0.943263 0.152204 0.847796 0.22539 0.77461
8
0.571583 0.428417 0.604837 0.395163 0.499218 0.500782 0.896533 0.103467
8
0.0 1.0 1.0 0.0 1.0 0.0 0.0 1.0
8
1.0 0.0 0.0 1.0 1.0 0.0 0.0 1.0
8
0.0 1.0 1.0 0.0 1.0 0.0 1.0 0.0
8
1.0 0.0 1.0 0.0 1.0 0.0 0.0 1.0
8
0.0 1.0 1.0 0.0 0.0 1.0 0.0 1.0
8
0.440125 0.559875 0.0144692 0.985531 0.595043 0.404957 0.939343 0.0606568
8
0.765866 0.234134 0.221232 0.778768 0.974929 0.0250709 0.218086 0.781914
8
0.234423 0.765577 0.995364 0.00463635 0.164065 0.835935 0.328516 0.671484
8
1.0 0.0 1.0 0.0 1.0 0.0 0.0 1.0
8
1.0 0.0 1.0 0.0 0.0 1.0 0.0 1.0
8
1.0 0.0 0.0 1.0 1.0 0.0 1.0 0.0
8
0.0 1.0 1.0 0.0 1.0 0.0 1.0 0.0
8
1.0 0.0 0.0 1.0 1.0 0.0 0.0 1.0
8
0.905877 0.0941232 0.645978 0.354022 0.953471 0.0465295 0.0699419 0.930058
8
0.135932 0.864068 0.508942 0.491058 0.587948 0.412052 0.437567 0.562433
8
0.0 1.0 1.0 0.0 0.0 1.0 0.0 1.0
8
0.0 1.0 1.0 0.0 0.0 1.0 0.0 1.0
4
1.0 0.0 0.0 1.0
8
1.0 0.0 0.0 1.0 0.0 1.0 1.0 0.0
8
0.0 1.0 0.0 1.0 0.0 1.0 1.0 0.0
8
0.0 1.0 1.0 0.0 1.0 0.0 0.0 1.0
8
0.0 1.0 1.0 0.0 1.0 0.0 1.0 0.0
8
0.0 1.0 1.0 0.0 1.0 0.0 0.0 1.0
8
0.0 1.0 1.0 0.0 0.0 1.0 0.0 1.0
8
0.0 1.0 1.0 0.0 1.0 0.0 0.0 1.0
8
0.427521 0.572479 0.613569 0.386431 0.190841 0.809159 0.959441 0.0405595
8
0.0 1.0 1.0 0.0 1.0 0.0 1.0 0.0
8
1.0 0.0 1.0 0.0 0.0 1.0 0.0 1.0
8
1.0 0.0 1.0 0.0 0.0 1.0 0.0 1.0
8
0.396904 0.603096 0.491557 0.508443 0.352953 0.647047 0.604298 0.395702
8
1.0 0.0 0.0 1.0 1.0 0.0 0.0 1.0
8
0.0 1.0 0.0 1.0 0.0 1.0 1.0 0.0
8
0.97709 0.0229096 0.807826 0.192174 0.239957 0.760043 0.441383 0.558617
8
0.0 1.0 1.0 0.0 1.0 0.0 1.0 0.0
8
0.884702 0.115298 0.530074 0.469926 0.809709 0.190291 0.832863 0.167137
8
1.0 0.0 0.0 1.0 0.0 1.0 0.0 1.0
8
0.0 1.0 1.0 0.0 1.0 0.0 1.0 0.0
8
1.0 0.0 1.0 0.0 0.0 1.0 0.0 1.0
8
0.0 1.0 1.0 0.0 0.0 1.0 0.0 1.0
8
0.0 1.0 0.0 1.0 1.0 0.0 0.0 1.0
8
0.0 1.0 0.0 1.0 1.0 0.0 0.0 1.0
4
1.0 0.0 0.0 1.0
8
0.0 1.0 0.0 1.0 0.0 1.0 1.0 0.0
8
0.180654 0.819346 0.316948 0.683052 0.668876 0.331124 0.924997 0.0750026
8
1.0 0.0 0.0 1.0 0.0 1.0 1.0 0.0
8
0.266484 0.733516 0.0221262 0.977874 0.55838 0.44162 0.711598 0.288402
8
1.0 0.0 0.0 1.0 0.0 1.0 1.0 0.0
8
0.0 1.0 1.0 0.0 1.0 0.0 1.0 0.0
8
0.0 1.0 0.0 1.0 1.0 0.0 0.0 1.0
8
1.0 0.0 0.0 1.0 0.0 1.0 1.0 0.0
8
0.0 1.0 0.0 1.0 0.0 1.0 1.0 0.0
8
0.916934 0.0830662 0.728778 0.271222 0.48632 0.51368 0.628532 0.371468
8
0.553861 0.446139 0.669948 0.330052 0.540777 0.459223 0.940274 0.0597256
8
0.278449 0.721551 0.852171 0.147829 0.56524 0.43476 0.813824 0.186176
8
1.0 0.0 0.0 1.0 0.0 1.0 0.0 1.0
8
0.724913 0.275087 0.521801 0.478199 0.651552 0.348448 0.197172 0.802828
8
0.0 1.0 1.0 0.0 0.0 1.0 0.0 1.0
8
0.0 1.0 0.0 1.0 1.0 0.0 1.0 0.0
8
0.0 1.0 1.0 0.0 1.0 0.0 1.0 0.0
8
0.0393247 0.960675 0.0764294 0.923571 0.528405 0.471595 0.853149 0.146851
8
1.0 0.0 1.0 0.0 1.0 0.0 0.0 1.0
8
0.0 1.0 0.0 1.0 0.0 1.0 1.0 0.0
8
0.0 1.0 1.0 0.0 0.0 1.0 1.0 0.0
8
0.998851 0.00114852 0.705911 0.294089 0.146037 0.853963 0.728974 0.271026
8
0.0 1.0 0.0 1.0 0.0 1.0 1.0 0.0
4
0.0 1.0 1.0 0.0
8
1.0 0.0 1.0 0.0 1.0 0.0 0.0 1.0
8
0.0 1.0 1.0 0.0 1.0 0.0 0.0 1.0
8
1.0 0.0 0.0 1.0 1.0 0.0 0.0 1.0
8
0.93845 0.0615501 0.998572 0.00142774 0.838218 0.161782 0.694516 0.305484
8
0.544128 0.455872 0.840553 0.159447 0.726398 0.273602 0.669213 0.330787
8
0.0 1.0 1.0 0.0 1.0 0.0 1.0 0.0
8
1.0 0.0 1.0 0.0 1.0 0.0 0.0 1.0
8
0.811793 0.188207 0.286101 0.713899 0.995217 0.00478265 0.374118 0.625882
8
1.0 0.0 0.0 1.0 0.0 1.0 0.0 1.0
8
1.0 0.0 0.0 1.0 1.0 0.0 0.0 1.0
8
0.0 1.0 1.0 0.0 0.0 1.0 1.0 0.0
8
1.0 0.0 1.0 0.0 1.0 0.0 0.0 1.0
8
0.149294 0.850706 0.0559749 0.944025 0.150517 0.849483 0.915862 0.084138
8
1.0 0.0 1.0 0.0 0.0 1.0 0.0 1.0
8
0.0 1.0 1.0 0.0 1.0 0.0 1.0 0.0
8
0.0 1.0 0.0 1.0 0.0 1.0 1.0 0.0
8
0.0 1.0 0.0 1.0 1.0 0.0 0.0 1.0
8
1.0 0.0 0.0 1.0 0.0 1.0 0.0 1.0
8
1.0 0.0 1.0 0.0 0.0 1.0 1.0 0.0
8
1.0 0.0 1.0 0.0 0.0 1.0 1.0 0.0
8
0.0 1.0 0.0 1.0 1.0 0.0 1.0 0.0
8
0.229349 0.770651 0.293086 0.706914 0.356282 0.643718 0.876822 0.123178
8
1.0 0.0 1.0 0.0 1.0 0.0 0.0 1.0
4
0.0 1.0 1.0 0.0
8
0.0 1.0 1.0 0.0 0.0 1.0 0.0 1.0
8
0.0 1.0 1.0 0.0 0.0 1.0 1.0 0.0
8
0.0 1.0 1.0 0.0 0.0 1.0 1.0 0.0
8
1.0 0.0 0.0 1.0 0.0 1.0 1.0 0.0
8
1.0 0.0 0.0 1.0 1.0 0.0 0.0 1.0
8
0.0 1.0 1.0 0.0 0.0 1.0 0.0 1.0
8
0.0 1.0 0.0 1.0 1.0 0.0 0.0 1.0
8
1.0 0.0 0.0 1.0 0.0 1.0 1.0 0.0
8
0.0 1.0 0.0 1.0 0.0 1.0 1.0 0.0
8
1.0 0.0 0.0 1.0 1.0 0.0 1.0 0.0
8
1.0 0.0 0.0 1.0 1.0 0.0 0.0 1.0
8
1.0 0.0 0.0 1.0 0.0 1.0 0.0 1.0
8
0.500581 0.499419 0.429107 0.570893 0.9723 0.0276997 0.765893 0.234107
8
1.0 0.0 0.0 1.0 0.0 1.0 0.0 1.0
8
0.0 1.0 0.0 1.0 1.0 0.0 0.0 1.0
8
0.0 1.0 1.0 0.0 1.0 0.0 0.0 1.0
8
0.0 1.0 0.0 1.0 1.0 0.0 0.0 1.0
8
1.0 0.0 0.0 1.0 1.0 0.0 0.0 1.0
8
0.0 1.0 1.0 0.0 1.0 0.0 0.0 1.0
8
0.6447 0.3553 0.998582 0.00141817 0.838967 0.161033 0.748001 0.251999
8
0.0 1.0 0.0 1.0 0.0 1.0 1.0 0.0
8
0.0 1.0 1.0 0.0 0.0 1.0 1.0 0.0
8
0.0 1.0 1.0 0.0 0.0 1.0 1.0 0.0
4
1.0 0.0 0.0 1.0
8
1.0 0.0 0.0 1.0 0.0 1.0 0.0 1.0
8
0.0 1.0 0.0 1.0 1.0 0.0 0.0 1.0
8
0.0 1.0 0.0 1.0 1.0 0.0 0.0 1.0
8
0.207329 0.792671 0.405014 0.594986 0.317744 0.682256 0.321522 0.678478
8
1.0 0.0 1.0 0.0 0.0 1.0 1.0 0.0
8
0.808288 0.191712 0.144176 0.855824 0.93889 0.0611099 0.358233 0.641767
8
0.0 1.0 1.0 0.0 1.0 0.0 1.0 0.0
8
0.562818 0.437182 0.437281 0.562719 0.70131 0.29869 0.673955 0.326045
8
0.0 1.0 1.0 0.0 1.0 0.0 0.0 1.0
8
1.0 0.0 0.0 1.0 0.0 1.0 0.0 1.0
8
0.0 1.0 1.0 0.0 1.0 0.0 0.0 1.0
8
0.596421 0.403579 0.562033 0.437967 0.936762 0.0632378 0.535311 0.464689
8
0.367928 0.632072 0.981058 0.018942 0.690809 0.309191 0.77178 0.22822
8
1.0 0.0 1.0 0.0 0.0 1.0 1.0 0.0
8
1.0 0.0 1.0 0.0 1.0 0.0 0.0 1.0
8
0.0 1.0 0.0 1.0 1.0 0.0 0.0 1.0
8
1.0 0.0 0.0 1.0 0.0 1.0 0.0 1.0
8
0.860676 0.139324 0.916972 0.0830282 0.32222 0.67778 0.797439 0.202561
8
1.0 0.0 0.0 1.0 1.0 0.0 0.0 1.0
8
0.88324 0.11676 0.518239 0.481761 0.271743 0.728257 0.770421 0.229579
8
0.280296 0.719704 0.708021 0.291979 0.597815 0.402185 0.912908 0.0870918
8
0.0 1.0 0.0 1.0 1.0 0.0 1.0 0.0
8
0.0 1.0 0.0 1.0 1.0 0.0 0.0 1.0
4
0.814787 0.185213 0.354868 0.645132
8
1.0 0.0 0.0 1.0 0.0 1.0 1.0 0.0
8
0.0 1.0 1.0 0.0 1.0 0.0 1.0 0.0
8
0.894153 0.105847 0.626391 0.373609 0.266778 0.733222 0.602174 0.397826
8
1.0 0.0 1.0 0.0 0.0 1.0 1.0 0.0
8
1.0 0.0 1.0 0.0 0.0 1.0 0.0 1.0
8
0.0 1.0 0.0 1.0 1.0 0.0 1.0 0.0
8
0.0 1.0 0.0 1.0 1.0 0.0 0.0 1.0
8
0.902562 0.0974383 0.0961039 0.903896 0.885983 0.114017 0.724459 0.275541
8
0.0 1.0 0.0 1.0 1.0 0.0 1.0 0.0
8
1.0 0.0 0.0 1.0 1.0 0.0 0.0 1.0
8
1.0 0.0 0.0 1.0 1.0 0.0 1.0 0.0
8
0.0 1.0 1.0 0.0 1.0 0.0 1.0 0.0
8
0.0 1.0 1.0 0.0 0.0 1.0 0.0 1.0
8
0.974438 0.0255625 0.114748 0.885252 0.850494 0.149506 0.86042 0.13958
8
0.93308 0.0669199 0.640556 0.359444 0.190056 0.809944 0.282444 0.717556
8
0.0 1.0 1.0 0.0 0.0 1.0 0.0 1.0
8
1.0 0.0 1.0 0.0 0.0 1.0 0.0 1.0
8
0.824205 0.175795 0.821483 0.178517 0.940989 0.0590112 0.208948 0.791052
8
1.0 0.0 1.0 0.0 0.0 1.0 1.0 0.0
8
0.0 1.0 1.0 0.0 1.0 0.0 1.0 0.0
8
1.0 0.0 1.0 0.0 1.0 0.0 0.0 1.0
8
1.0 0.0 1.0 0.0 0.0 1.0 0.0 1.0
8
0.686827 0.313173 0.893031 0.106969 0.912644 0.0873559 0.511032 0.488968